c description: Random 3-CNF over 15 variables and 45 clauses
p cnf 15 45
3 -9 14 0
-6 8 15 0
-8 -11 -12 0
5 7 9 0
-8 -9 -10 0
-9 -12 14 0
1 -5 12 0
6 -7 10 0
-3 5 -13 0
-2 -3 -15 0
-1 -3 -13 0
3 -5 -11 0
-7 -12 13 0
2 8 -11 0
-2 -7 15 0
7 11 -15 0
3 -9 10 0
-2 9 -15 0
-7 13 15 0
6 7 -12 0
-4 -9 14 0
-2 -10 -15 0
6 7 -15 0
-2 -6 -12 0
4 -5 10 0
-1 3 -6 0
-2 -3 7 0
-1 13 -15 0
2 -7 9 0
7 -11 14 0
-4 14 -15 0
12 -13 -15 0
4 -8 -15 0
-1 6 -8 0
1 -8 -15 0
-4 -10 -13 0
7 -10 -12 0
-8 9 10 0
9 -10 15 0
-4 -7 15 0
2 12 14 0
1 -12 14 0
-3 5 -9 0
4 -11 13 0
-5 6 -15 0